set Origini := o1 o2 o3;
set Destinazioni := d1 d2 d3 d4;

param O :=
o1      70
o2      90
o3      40;

param D :=
d1      10
d2      60
d3      30
d4      40;

param C: d1 d2 d3 d4 :=
o1       6  8  3  4
o2       2  3  1  3
o3       2  4  6  5;